p cnf 150 30
x 1 -2 -3 -9 10 11 -12 13 -14 -15 -16 17 -19 -21 -24 27 -32 -33 -35 36 37 -38 -41 42 -44 46 47 -49 -55 59 -62 -63 66 68 -71 -72 -77 -83 -84 -86 87 -88 -91 92 93 94 -99 100 101 -104 -108 110 -114 115 -116 117 118 119 -123 126 -127 129 -130 132 -134 -135 -136 -137 140 143 146 148 149 150 0
x 2 -4 -6 -7 -8 -11 12 13 16 -18 -19 -21 22 23 26 -27 30 -34 -38 -39 41 -42 -43 48 -49 54 -60 62 -66 67 -68 -69 70 71 75 -78 -79 80 -82 -87 -88 89 -95 96 -99 -100 -101 -102 -103 104 106 -109 -111 114 -115 -117 119 -120 -121 122 -124 -130 -132 -134 135 -136 -137 139 140 143 146 -147 -148 149 0
x -1 2 4 -8 -12 -15 -16 17 -21 -22 -27 -29 30 35 -36 -37 -39 -40 42 -43 -44 45 -46 -47 49 -52 55 56 57 60 -61 -62 -64 65 -66 68 77 78 82 84 86 -91 92 93 -94 -95 -97 -99 -101 -103 -104 106 -107 -108 -112 117 123 -125 -126 129 -135 136 137 138 -139 -144 146 -147 149 -150 0
x 1 -3 4 -6 9 -12 13 -14 15 -16 18 -20 -22 -23 27 28 29 31 -32 33 -34 -37 -40 42 -44 45 51 -52 -55 -56 -59 -62 64 68 69 73 74 78 -82 83 87 -90 -93 95 -97 98 99 -101 102 103 -104 105 106 107 -109 110 -112 113 -118 -119 120 123 124 127 128 129 -131 -134 135 137 138 140 -142 -143 146 -150 0
x -1 -2 4 6 14 -15 16 -17 -18 -20 24 -26 -30 -31 -32 -35 36 -40 43 -44 46 -49 50 51 55 56 57 58 -59 61 63 64 66 68 69 -70 71 -72 74 -77 -78 79 80 -84 86 91 -93 -95 97 99 -103 -105 107 -108 -111 -112 -114 -120 -122 123 -124 -125 126 -127 131 132 138 143 144 145 146 -147 148 0
x -1 2 3 4 -5 8 -10 -12 -15 -16 -17 -20 21 -26 30 -31 32 -35 -41 42 -43 45 -48 49 -50 -53 55 -59 -64 65 67 -69 -70 71 -72 -75 79 -83 -84 88 91 -95 100 -102 107 -108 -110 112 -113 114 115 -118 119 120 -121 123 -127 -128 129 130 131 -132 138 -139 -142 -144 -146 147 148 0
x -3 -4 -6 7 -8 -9 -11 12 15 17 -20 -27 29 32 34 35 -36 37 38 -39 43 44 46 -49 51 53 56 58 59 -61 62 63 -64 -65 68 -70 -71 -73 -77 78 -79 -81 84 85 86 87 -88 90 95 96 97 98 -101 -102 -104 106 107 -108 109 -112 -113 -114 118 -119 -120 -121 122 -125 128 -129 130 -132 -133 134 135 136 -137 138 142 143 144 -145 -148 -150 0
x 2 6 8 -10 11 13 17 -21 24 -26 27 -28 30 -31 32 -33 34 -36 -39 -42 -45 -48 -49 50 51 -52 55 -58 59 60 62 -64 -65 -71 -75 -78 -80 81 -82 83 -86 -89 -92 97 -100 101 -102 -106 -107 108 109 111 -117 -118 -119 -121 124 129 130 -132 -134 136 137 -138 140 -144 145 -147 -149 150 0
x -3 -5 6 -7 -10 -13 15 16 -17 -18 19 -20 -21 23 -25 -26 28 -29 30 -31 -40 41 42 43 -44 -45 -47 48 -51 53 54 -55 57 61 -62 -65 -66 -67 -69 -70 -71 72 -77 79 83 -85 86 -91 94 -95 101 -102 -103 104 -106 107 108 110 -113 -114 115 117 118 -119 121 -124 -126 -127 128 130 -132 134 -135 -136 138 139 -140 -142 143 -146 147 -148 -149 0
x -1 -2 -3 6 8 -9 10 -11 13 14 18 19 -21 22 25 28 32 -34 35 37 -39 -42 -46 47 48 49 -50 51 52 53 56 -62 66 70 -71 74 76 -78 80 -81 -82 87 90 91 95 -97 98 99 -101 103 -106 109 111 113 114 -117 -120 122 124 130 133 -140 -144 147 -148 -149 -150 0
x 1 -2 3 -4 -5 7 -8 -9 -13 -16 17 -20 -22 24 -26 33 -34 37 -38 -41 -42 43 -44 46 -48 -49 -50 53 -54 -56 57 59 -63 64 -65 67 -70 71 73 75 -76 -77 -79 -81 83 -86 -90 -91 -92 93 95 -96 98 -99 100 103 112 -113 114 115 118 -119 125 128 -129 -132 134 -135 142 -143 144 145 -147 150 0
x -1 2 -3 5 8 -11 -21 24 -25 -26 -27 29 -31 -35 38 -39 44 47 -48 50 -51 -56 58 59 60 -61 64 -65 67 69 -71 -75 -76 77 78 79 -80 81 -84 -85 86 -87 88 90 -91 -93 95 -98 99 100 -101 -102 -104 -105 -108 -109 -110 -111 -115 -117 118 124 -127 -128 -129 131 132 -135 -138 -139 141 143 145 147 0
x 2 4 5 -9 -10 11 -16 -19 20 -21 -24 27 29 30 -33 -34 35 -37 -40 41 42 -43 -44 -45 -49 53 54 -55 62 -65 68 -69 -70 -74 75 77 -81 -83 -84 86 88 -89 -90 93 100 104 -105 -106 -108 -109 110 112 113 114 115 116 -117 -118 -120 -122 123 -125 -126 127 130 -131 -134 -135 -138 139 143 -146 -147 150 0
x -3 -6 8 10 -13 -14 15 -16 17 -18 -21 25 -26 28 29 31 -32 -34 -35 -37 -39 -40 44 45 47 50 -51 -52 -55 -58 59 65 -67 -68 -69 70 72 76 77 79 -80 82 -83 84 85 -87 91 92 -94 -95 96 98 99 104 -107 -108 -111 112 114 -118 119 122 -124 125 -126 -128 130 136 -139 -143 -146 -147 0
x 4 -5 8 -9 10 -11 -12 14 -16 19 21 23 27 -30 33 34 37 38 -40 -41 -42 43 -45 46 51 55 57 58 60 -61 62 -63 -64 -65 -68 71 -73 -74 -75 76 77 78 -80 86 -87 -90 93 94 -95 -96 -100 103 -104 -105 106 107 109 110 -113 -114 -116 117 118 122 124 -125 -126 128 130 131 -132 -135 136 138 139 -147 -150 0
x 2 6 -7 8 -11 -12 13 18 19 21 26 -27 -29 -30 -32 33 -34 -37 39 41 43 44 47 -49 -52 53 54 58 -61 64 -65 66 70 72 74 -76 -77 78 81 -83 -84 -86 -87 -88 89 -91 -92 -94 -96 98 -99 100 -101 103 -104 -107 108 110 115 116 -119 -120 125 126 -128 -129 -130 -133 136 -137 138 140 -141 -142 143 144 148 149 0
x -1 -2 -3 4 -5 -6 8 9 -10 -13 -15 16 -17 -18 -19 21 22 -23 -25 -26 -27 31 33 35 -37 40 42 -43 46 -48 52 -54 -55 63 -65 -66 -68 -69 -72 -75 76 77 78 79 -81 82 84 85 86 89 91 94 98 99 -100 -102 -104 -105 106 -108 -110 -111 114 117 -118 -120 121 -122 -125 -127 130 131 -134 135 138 139 -143 -144 147 -148 -149 -150 0
x -1 6 -7 8 -9 10 -14 22 -23 -26 -27 28 30 -32 36 38 -39 40 -44 -45 47 48 49 51 -52 -54 -55 -56 57 59 -60 62 65 66 -69 -71 76 -77 78 79 -82 83 -85 88 89 93 94 95 99 103 106 113 114 115 117 118 -122 -123 -127 129 131 -135 137 139 140 143 -145 147 -148 149 0
x -3 -7 -8 10 14 15 16 17 20 -22 -23 -26 -30 -32 -33 -36 38 39 41 42 45 -46 47 -50 -53 -56 57 -59 -60 -62 64 -65 -66 -68 -73 74 75 -76 -79 80 81 -82 83 -85 -86 -87 -88 -89 90 -92 -93 94 -95 -96 -98 102 -103 106 -108 -111 -113 117 118 119 -120 -121 -129 132 -133 -142 144 147 0
x 1 2 4 -5 8 -9 -14 16 19 21 -22 -23 -24 26 29 31 -33 35 -38 39 -40 41 42 -49 -51 -53 54 55 59 60 -63 64 -68 -69 70 72 74 76 -79 80 -81 -83 -84 86 88 90 -93 94 96 -99 -101 106 107 -108 110 -111 114 -118 -119 -121 -123 126 -127 128 129 -130 131 -132 -134 -135 -138 139 -140 -142 -145 146 147 148 -150 0
x -1 2 -4 -5 9 -10 -11 12 -19 20 22 -23 26 -27 -28 29 -31 -36 -39 40 -41 -42 43 44 -46 48 51 53 -55 -59 -61 -62 64 65 67 -69 70 73 -75 -77 81 -82 84 -85 86 -87 88 -91 92 -96 97 102 -103 105 106 107 109 -110 -111 114 -116 121 123 -124 126 130 132 -134 -135 136 137 138 -140 142 -145 -146 -147 -149 0
x -2 -5 -6 7 -9 -13 -14 -15 -19 -21 -22 -24 25 26 28 30 31 33 34 -35 -37 41 42 -45 46 -47 -48 -49 50 51 -53 -54 -57 -59 60 -61 -62 -63 66 67 69 72 73 74 -79 -80 82 -83 -84 -89 -90 -92 -93 94 -95 98 -99 101 105 -110 111 -113 -115 116 -118 122 -126 -127 -129 -131 132 134 -136 137 140 143 144 145 -149 150 0
x -2 -3 -4 -9 10 13 14 -16 19 22 25 -27 29 31 32 -33 -34 40 -41 44 45 -46 47 -48 -51 -54 -55 -56 -57 -59 -61 62 63 -65 -68 69 70 72 -73 -75 -76 -77 -82 -83 -86 90 92 97 -98 101 102 -104 -105 -106 -107 108 -109 114 -122 124 -125 -127 -130 -131 -132 134 136 -137 -138 -139 -140 141 142 -143 -144 147 150 0
x 5 -7 9 -10 -13 17 -22 24 -25 26 27 -28 31 38 -41 42 47 50 -51 57 -59 -63 64 -65 66 68 70 -73 -77 -82 83 85 87 88 90 93 94 -96 98 -103 -104 -106 108 -109 -111 112 113 114 118 -119 -120 121 127 128 129 -131 134 -138 -139 142 143 -145 150 0
x -2 -3 -6 -7 11 15 20 -21 -22 -23 24 -26 -27 29 32 -33 37 41 -43 -47 48 49 -50 52 53 55 56 -57 58 -61 64 -65 67 -71 -73 -74 -75 -80 81 82 84 85 86 89 93 95 -96 99 -100 103 -105 108 109 112 114 -115 116 118 119 -121 122 126 -128 131 132 -133 137 -139 141 -142 149 0
x 1 -5 -7 8 12 -15 -16 17 18 -20 -21 -23 25 28 -30 -31 -32 33 -37 38 -39 41 -45 -49 -50 -51 -54 56 57 60 63 64 -65 -66 71 73 -74 -76 78 -81 82 -83 88 -89 -91 -92 -95 -99 101 -102 103 -105 108 109 -112 113 114 -115 -117 -119 -121 -123 -124 125 -130 132 -134 -139 143 146 148 -150 0
x 2 5 -11 -12 -15 16 17 23 30 -34 -35 -36 -37 38 39 -44 49 50 52 54 57 58 -61 -67 68 72 73 75 76 77 80 -84 -85 -86 -88 -91 -92 -93 95 97 99 100 -101 -102 -103 104 107 -109 110 113 -115 -119 -120 123 124 125 -126 128 130 -131 -136 -138 141 142 -146 147 148 150 0
x -1 -3 4 -5 -10 12 -13 -14 -18 -19 -20 21 -22 23 24 25 27 -28 -29 31 33 37 -38 -39 43 -45 50 53 -55 56 59 60 61 63 -64 65 66 67 -68 -69 -70 -75 77 78 -79 80 -82 -83 -84 86 -87 88 92 -96 101 -106 108 -109 -111 112 -114 115 119 -120 -122 -123 -128 -129 -131 133 134 136 -137 -139 -142 143 144 145 146 148 -150 0
x -2 -4 5 12 14 17 -19 20 -22 23 24 25 -26 -29 -30 32 34 35 38 -41 42 -43 -47 -48 49 50 -51 53 54 56 -57 62 -63 66 68 70 74 76 -77 78 -79 80 81 84 -85 86 -88 -91 92 -93 -94 98 99 -100 102 -104 -105 -108 -111 -113 115 117 118 -122 -123 124 -127 -132 -133 -136 -140 141 142 144 145 -146 147 0
x 8 9 -15 16 -18 -21 22 -25 26 27 -29 -34 36 -37 47 -48 49 53 54 55 57 58 60 62 64 -65 -70 -72 -75 78 -79 -80 81 90 -91 -94 -95 -98 -100 103 -105 -106 109 110 -111 112 113 116 -119 120 -121 -122 124 127 129 -132 134 135 -136 137 140 -141 -143 -146 147 148 -150 0
g -60